(set-logic HORN)
(declare-datatypes ((Nat_0 0)) (((Z_0 ) (S_0 (unS_0 Nat_0)))))
(declare-fun diseqNat_0 (Nat_0 Nat_0) Bool)
(declare-fun unS_1 (Nat_0 Nat_0) Bool)
(declare-fun isZ_0 (Nat_0) Bool)
(declare-fun isS_0 (Nat_0) Bool)
(assert (forall ((x_104 Nat_0) (x_103 Nat_0))
	(=> (= x_104 (S_0 x_103))
	    (unS_1 x_103 x_104))))
(assert (isZ_0 Z_0))
(assert (forall ((x_105 Nat_0))
	(isS_0 (S_0 x_105))))
(assert (forall ((x_106 Nat_0))
	(diseqNat_0 Z_0 (S_0 x_106))))
(assert (forall ((x_107 Nat_0))
	(diseqNat_0 (S_0 x_107) Z_0)))
(assert (forall ((x_108 Nat_0) (x_109 Nat_0))
	(=> (diseqNat_0 x_108 x_109)
	    (diseqNat_0 (S_0 x_108) (S_0 x_109)))))
(declare-fun add_0 (Nat_0 Nat_0 Nat_0) Bool)
(declare-fun minus_0 (Nat_0 Nat_0 Nat_0) Bool)
(declare-fun le_0 (Nat_0 Nat_0) Bool)
(declare-fun ge_0 (Nat_0 Nat_0) Bool)
(declare-fun lt_0 (Nat_0 Nat_0) Bool)
(declare-fun gt_0 (Nat_0 Nat_0) Bool)
(declare-fun mult_0 (Nat_0 Nat_0 Nat_0) Bool)
(declare-fun div_0 (Nat_0 Nat_0 Nat_0) Bool)
(declare-fun mod_0 (Nat_0 Nat_0 Nat_0) Bool)
(assert (forall ((y_0 Nat_0))
	(add_0 y_0 Z_0 y_0)))
(assert (forall ((x_98 Nat_0) (y_0 Nat_0) (r_0 Nat_0))
	(=> (add_0 r_0 x_98 y_0)
	    (add_0 (S_0 r_0) (S_0 x_98) y_0))))
(assert (forall ((y_0 Nat_0))
	(minus_0 Z_0 Z_0 y_0)))
(assert (forall ((x_98 Nat_0) (y_0 Nat_0) (r_0 Nat_0))
	(=> (minus_0 r_0 x_98 y_0)
	    (minus_0 (S_0 r_0) (S_0 x_98) y_0))))
(assert (forall ((y_0 Nat_0))
	(le_0 Z_0 y_0)))
(assert (forall ((x_98 Nat_0) (y_0 Nat_0))
	(=> (le_0 x_98 y_0)
	    (le_0 (S_0 x_98) (S_0 y_0)))))
(assert (forall ((y_0 Nat_0))
	(ge_0 y_0 Z_0)))
(assert (forall ((x_98 Nat_0) (y_0 Nat_0))
	(=> (ge_0 x_98 y_0)
	    (ge_0 (S_0 x_98) (S_0 y_0)))))
(assert (forall ((y_0 Nat_0))
	(lt_0 Z_0 (S_0 y_0))))
(assert (forall ((x_98 Nat_0) (y_0 Nat_0))
	(=> (lt_0 x_98 y_0)
	    (lt_0 (S_0 x_98) (S_0 y_0)))))
(assert (forall ((y_0 Nat_0))
	(gt_0 (S_0 y_0) Z_0)))
(assert (forall ((x_98 Nat_0) (y_0 Nat_0))
	(=> (gt_0 x_98 y_0)
	    (gt_0 (S_0 x_98) (S_0 y_0)))))
(assert (forall ((y_0 Nat_0))
	(mult_0 Z_0 Z_0 y_0)))
(assert (forall ((x_98 Nat_0) (y_0 Nat_0) (r_0 Nat_0) (z_1 Nat_0))
	(=>	(and (mult_0 r_0 x_98 y_0)
			(add_0 z_1 r_0 y_0))
		(mult_0 z_1 (S_0 x_98) y_0))))
(assert (forall ((x_98 Nat_0) (y_0 Nat_0))
	(=> (lt_0 x_98 y_0)
	    (div_0 Z_0 x_98 y_0))))
(assert (forall ((x_98 Nat_0) (y_0 Nat_0) (r_0 Nat_0) (z_1 Nat_0))
	(=>	(and (ge_0 x_98 y_0)
			(minus_0 z_1 x_98 y_0)
			(div_0 r_0 z_1 y_0))
		(div_0 (S_0 r_0) x_98 y_0))))
(assert (forall ((x_98 Nat_0) (y_0 Nat_0))
	(=> (lt_0 x_98 y_0)
	    (mod_0 x_98 x_98 y_0))))
(assert (forall ((x_98 Nat_0) (y_0 Nat_0) (r_0 Nat_0) (z_1 Nat_0))
	(=>	(and (ge_0 x_98 y_0)
			(minus_0 z_1 x_98 y_0)
			(mod_0 r_0 z_1 y_0))
		(mod_0 r_0 x_98 y_0))))
(declare-fun and_0 (Bool Bool Bool) Bool)
(declare-fun or_0 (Bool Bool Bool) Bool)
(declare-fun hence_0 (Bool Bool Bool) Bool)
(declare-fun not_0 (Bool Bool) Bool)
(assert (and_0 false false false))
(assert (and_0 false true false))
(assert (and_0 false false true))
(assert (and_0 true true true))
(assert (or_0 false false false))
(assert (or_0 true true false))
(assert (or_0 true false true))
(assert (or_0 true true true))
(assert (hence_0 true false false))
(assert (hence_0 false true false))
(assert (hence_0 true false true))
(assert (hence_0 true true true))
(assert (not_0 true false))
(assert (not_0 false true))
(declare-datatypes ((MutInt_0 0)) (((mutInt_1 (curInt_0 Nat_0) (retInt_0 Nat_0)))))
(declare-fun diseqMutInt_0 (MutInt_0 MutInt_0) Bool)
(declare-fun curInt_1 (Nat_0 MutInt_0) Bool)
(declare-fun retInt_1 (Nat_0 MutInt_0) Bool)
(declare-fun ismutInt_0 (MutInt_0) Bool)
(assert (forall ((x_112 MutInt_0) (x_110 Nat_0) (x_111 Nat_0))
	(=> (= x_112 (mutInt_1 x_110 x_111))
	    (curInt_1 x_110 x_112))))
(assert (forall ((x_112 MutInt_0) (x_110 Nat_0) (x_111 Nat_0))
	(=> (= x_112 (mutInt_1 x_110 x_111))
	    (retInt_1 x_111 x_112))))
(assert (forall ((x_113 Nat_0) (x_114 Nat_0))
	(ismutInt_0 (mutInt_1 x_113 x_114))))
(assert (forall ((x_115 Nat_0) (x_116 Nat_0) (x_117 Nat_0) (x_118 Nat_0))
	(=> (diseqNat_0 x_115 x_117)
	    (diseqMutInt_0 (mutInt_1 x_115 x_116) (mutInt_1 x_117 x_118)))))
(assert (forall ((x_115 Nat_0) (x_116 Nat_0) (x_117 Nat_0) (x_118 Nat_0))
	(=> (diseqNat_0 x_116 x_118)
	    (diseqMutInt_0 (mutInt_1 x_115 x_116) (mutInt_1 x_117 x_118)))))
(declare-fun lingerdecthree_0 (MutInt_0 MutInt_0 MutInt_0) Bool)
(declare-fun lingerdecthree_1 (MutInt_0 MutInt_0 MutInt_0 Bool) Bool)
(declare-fun lingerdecthree_2 (MutInt_0 MutInt_0 MutInt_0 Nat_0 MutInt_0 MutInt_0 MutInt_0 Bool) Bool)
(declare-fun lingerdecthree_3 (MutInt_0 MutInt_0 MutInt_0 Nat_0 MutInt_0 MutInt_0 MutInt_0 Bool Bool) Bool)
(declare-fun lingerdecthree_4 (MutInt_0 MutInt_0 MutInt_0 Nat_0 MutInt_0 MutInt_0 MutInt_0 Bool Bool Bool) Bool)
(declare-fun main_0 (Bool) Bool)
(declare-fun main_1 (Bool Bool) Bool)
(assert (forall ((x_0 MutInt_0) (x_1 MutInt_0) (x_2 MutInt_0) (x_3 Bool) (x_99 Nat_0) (x_100 Nat_0) (x_101 Nat_0) (x_119 Nat_0) (x_120 Nat_0) (x_121 Nat_0) (x_122 Nat_0) (x_123 Nat_0) (x_124 Nat_0))
	(=>	(and (lingerdecthree_1 (mutInt_1 x_99 x_119) (mutInt_1 x_100 x_120) (mutInt_1 x_101 x_121) x_3)
			(minus_0 x_99 x_122 (S_0 Z_0))
			(minus_0 x_100 x_123 (S_0 (S_0 Z_0)))
			(minus_0 x_101 x_124 (S_0 (S_0 (S_0 Z_0))))
			(retInt_1 x_119 x_0)
			(retInt_1 x_120 x_1)
			(retInt_1 x_121 x_2)
			(curInt_1 x_122 x_0)
			(curInt_1 x_123 x_1)
			(curInt_1 x_124 x_2))
		(lingerdecthree_0 x_0 x_1 x_2))))
(assert (forall ((x_4 MutInt_0) (x_5 MutInt_0) (x_6 MutInt_0) (x_7 Nat_0) (x_8 Bool) (x_9 MutInt_0) (x_10 MutInt_0) (x_11 MutInt_0))
	(=> (lingerdecthree_2 x_9 x_10 x_11 x_7 x_4 x_5 x_6 x_8)
	    (lingerdecthree_1 x_4 x_5 x_6 false))))
(assert (forall ((x_12 MutInt_0) (x_13 MutInt_0) (x_14 MutInt_0) (x_125 Nat_0) (x_126 Nat_0) (x_127 Nat_0) (x_128 Nat_0) (x_129 Nat_0) (x_130 Nat_0))
	(=>	(and (= x_125 x_126)
			(= x_127 x_128)
			(= x_129 x_130)
			(retInt_1 x_125 x_12)
			(curInt_1 x_126 x_12)
			(retInt_1 x_127 x_13)
			(curInt_1 x_128 x_13)
			(retInt_1 x_129 x_14)
			(curInt_1 x_130 x_14))
		(lingerdecthree_1 x_12 x_13 x_14 true))))
(assert (forall ((x_15 MutInt_0) (x_16 MutInt_0) (x_17 MutInt_0) (x_18 Nat_0) (x_19 MutInt_0) (x_20 MutInt_0) (x_21 MutInt_0) (x_22 Bool))
	(=> (lingerdecthree_3 x_15 x_16 x_17 x_18 x_19 x_20 x_21 false x_22)
	    (lingerdecthree_2 x_15 x_16 x_17 x_18 x_19 x_20 x_21 false))))
(assert (forall ((x_23 MutInt_0) (x_24 MutInt_0) (x_25 MutInt_0) (x_26 Nat_0) (x_27 MutInt_0) (x_28 MutInt_0) (x_29 MutInt_0) (x_30 Nat_0) (x_31 Nat_0) (x_32 Nat_0) (x_33 Nat_0) (x_34 Nat_0) (x_131 Nat_0) (x_132 Nat_0) (x_133 Nat_0) (x_134 Nat_0) (x_135 Nat_0) (x_136 Nat_0) (x_137 Nat_0) (x_138 Nat_0) (x_139 Nat_0) (x_140 Nat_0) (x_141 Nat_0) (x_142 Nat_0))
	(=>	(and (= x_131 x_132)
			(= x_30 x_31)
			(lingerdecthree_0 (mutInt_1 x_26 x_32) (mutInt_1 x_133 x_33) (mutInt_1 x_134 x_34))
			(= x_135 x_34)
			(= x_136 x_33)
			(= x_31 x_32)
			(= x_137 x_138)
			(= x_139 x_140)
			(= x_141 x_142)
			(retInt_1 x_131 x_27)
			(curInt_1 x_132 x_27)
			(curInt_1 x_133 x_28)
			(curInt_1 x_134 x_29)
			(retInt_1 x_135 x_29)
			(retInt_1 x_136 x_28)
			(retInt_1 x_137 x_25)
			(curInt_1 x_138 x_25)
			(retInt_1 x_139 x_23)
			(curInt_1 x_140 x_23)
			(retInt_1 x_141 x_24)
			(curInt_1 x_142 x_24))
		(lingerdecthree_2 x_23 x_24 x_25 x_26 x_27 x_28 x_29 true))))
(assert (forall ((x_35 MutInt_0) (x_36 MutInt_0) (x_37 MutInt_0) (x_38 Nat_0) (x_39 MutInt_0) (x_40 MutInt_0) (x_41 MutInt_0) (x_42 Bool) (x_43 Bool))
	(=> (lingerdecthree_4 x_35 x_36 x_37 x_38 x_39 x_40 x_41 x_42 false x_43)
	    (lingerdecthree_3 x_35 x_36 x_37 x_38 x_39 x_40 x_41 x_42 false))))
(assert (forall ((x_44 MutInt_0) (x_45 MutInt_0) (x_46 MutInt_0) (x_47 Nat_0) (x_48 MutInt_0) (x_49 MutInt_0) (x_50 MutInt_0) (x_51 Bool) (x_52 Nat_0) (x_53 Nat_0) (x_54 Nat_0) (x_55 Nat_0) (x_56 Nat_0) (x_143 Nat_0) (x_144 Nat_0) (x_145 Nat_0) (x_146 Nat_0) (x_147 Nat_0) (x_148 Nat_0) (x_149 Nat_0) (x_150 Nat_0) (x_151 Nat_0) (x_152 Nat_0) (x_153 Nat_0) (x_154 Nat_0))
	(=>	(and (= x_143 x_144)
			(= x_52 x_53)
			(lingerdecthree_0 (mutInt_1 x_145 x_54) (mutInt_1 x_47 x_55) (mutInt_1 x_146 x_56))
			(= x_147 x_56)
			(= x_53 x_55)
			(= x_148 x_54)
			(= x_149 x_150)
			(= x_151 x_152)
			(= x_153 x_154)
			(retInt_1 x_143 x_49)
			(curInt_1 x_144 x_49)
			(curInt_1 x_145 x_48)
			(curInt_1 x_146 x_50)
			(retInt_1 x_147 x_50)
			(retInt_1 x_148 x_48)
			(retInt_1 x_149 x_46)
			(curInt_1 x_150 x_46)
			(retInt_1 x_151 x_45)
			(curInt_1 x_152 x_45)
			(retInt_1 x_153 x_44)
			(curInt_1 x_154 x_44))
		(lingerdecthree_3 x_44 x_45 x_46 x_47 x_48 x_49 x_50 x_51 true))))
(assert (forall ((x_57 MutInt_0) (x_58 MutInt_0) (x_59 MutInt_0) (x_60 Nat_0) (x_61 MutInt_0) (x_62 MutInt_0) (x_63 MutInt_0) (x_64 Bool) (x_65 Bool) (x_66 Nat_0) (x_67 Nat_0) (x_68 Nat_0) (x_155 Nat_0) (x_156 Nat_0) (x_157 Nat_0) (x_158 Nat_0) (x_159 Nat_0) (x_160 Nat_0) (x_161 Nat_0) (x_162 Nat_0) (x_163 Nat_0) (x_164 Nat_0) (x_165 Nat_0) (x_166 Nat_0))
	(=>	(and (lingerdecthree_0 (mutInt_1 x_155 x_66) (mutInt_1 x_156 x_67) (mutInt_1 x_157 x_68))
			(= x_158 x_68)
			(= x_159 x_67)
			(= x_160 x_66)
			(= x_161 x_162)
			(= x_163 x_164)
			(= x_165 x_166)
			(curInt_1 x_155 x_61)
			(curInt_1 x_156 x_62)
			(curInt_1 x_157 x_63)
			(retInt_1 x_158 x_63)
			(retInt_1 x_159 x_62)
			(retInt_1 x_160 x_61)
			(retInt_1 x_161 x_58)
			(curInt_1 x_162 x_58)
			(retInt_1 x_163 x_59)
			(curInt_1 x_164 x_59)
			(retInt_1 x_165 x_57)
			(curInt_1 x_166 x_57))
		(lingerdecthree_4 x_57 x_58 x_59 x_60 x_61 x_62 x_63 x_64 x_65 false))))
(assert (forall ((x_69 MutInt_0) (x_70 MutInt_0) (x_71 MutInt_0) (x_72 Nat_0) (x_73 MutInt_0) (x_74 MutInt_0) (x_75 MutInt_0) (x_76 Bool) (x_77 Bool) (x_78 Nat_0) (x_79 Nat_0) (x_80 Nat_0) (x_81 Nat_0) (x_82 Nat_0) (x_167 Nat_0) (x_168 Nat_0) (x_169 Nat_0) (x_170 Nat_0) (x_171 Nat_0) (x_172 Nat_0) (x_173 Nat_0) (x_174 Nat_0) (x_175 Nat_0) (x_176 Nat_0) (x_177 Nat_0) (x_178 Nat_0))
	(=>	(and (= x_167 x_168)
			(= x_78 x_79)
			(lingerdecthree_0 (mutInt_1 x_169 x_80) (mutInt_1 x_170 x_81) (mutInt_1 x_72 x_82))
			(= x_79 x_82)
			(= x_171 x_81)
			(= x_172 x_80)
			(= x_173 x_174)
			(= x_175 x_176)
			(= x_177 x_178)
			(retInt_1 x_167 x_75)
			(curInt_1 x_168 x_75)
			(curInt_1 x_169 x_73)
			(curInt_1 x_170 x_74)
			(retInt_1 x_171 x_74)
			(retInt_1 x_172 x_73)
			(retInt_1 x_173 x_70)
			(curInt_1 x_174 x_70)
			(retInt_1 x_175 x_71)
			(curInt_1 x_176 x_71)
			(retInt_1 x_177 x_69)
			(curInt_1 x_178 x_69))
		(lingerdecthree_4 x_69 x_70 x_71 x_72 x_73 x_74 x_75 x_76 x_77 true))))
(assert (forall ((x_83 Bool) (x_84 Nat_0) (x_85 Nat_0) (x_86 Nat_0) (x_87 Nat_0) (x_88 Nat_0) (x_89 Nat_0) (x_90 Nat_0) (x_91 Nat_0) (x_92 Nat_0) (x_96 Bool))
	(=>	(and (lingerdecthree_0 (mutInt_1 x_84 x_88) (mutInt_1 x_85 x_90) (mutInt_1 x_86 x_92))
			(= x_91 x_92)
			(= x_89 x_90)
			(= x_87 x_88)
			(main_1 x_96 x_83)
			(gt_0 x_84 x_87)
			(not_0 x_96 true))
		(main_0 x_83))))
(assert (forall ((x_83 Bool) (x_84 Nat_0) (x_85 Nat_0) (x_86 Nat_0) (x_87 Nat_0) (x_88 Nat_0) (x_89 Nat_0) (x_90 Nat_0) (x_91 Nat_0) (x_92 Nat_0) (x_97 Bool))
	(=>	(and (lingerdecthree_0 (mutInt_1 x_84 x_88) (mutInt_1 x_85 x_90) (mutInt_1 x_86 x_92))
			(= x_91 x_92)
			(= x_89 x_90)
			(= x_87 x_88)
			(main_1 x_97 x_83)
			(le_0 x_84 x_87)
			(not_0 x_97 false))
		(main_0 x_83))))
(assert (forall ((x_93 Bool))
	(=> (= x_93 false)
	    (main_1 false x_93))))
(assert (forall ((x_94 Bool))
	(=> (= x_94 true)
	    (main_1 true x_94))))
(assert (forall ((x_95 Nat_0))
	(=> (main_0 true)
	    false)))
(check-sat)
